100 22118316
70 57 62 96 100 94 69 41 50 61 77 79 78 98 28 82 86 20 64 87 65 29 36 35 10 55 67 46 60 80 22 19 42 11 21 17 39 97 27 5 34 93 75 37 73 76 32 18 51 3 2 58 30 8 26 48 24 53 4 56 90 92 72 23 25 54 43 9 31 84 12 91 1 47 81 14 74 83 49 63 33 45 52 85 38 6 66 15 40 7 88 95 89 99 13 71 68 16 44 59 
